input/length_16_2
0011010010110000
