gurobi_output/length_16_2.sol
# Objective value = 5
S 5
C1,2 0
C1,7 0
C1,37 0
C2,3 0
C2,8 0
C2,38 0
C3,4 0
C3,9 0
C3,39 0
C4,5 0
C4,10 0
C4,40 0
C5,6 0
C5,11 0
C5,41 0
C6,12 0
C6,42 0
C7,8 0
C7,13 0
C7,43 0
C8,9 0
C8,14 0
C8,44 0
C9,10 0
C9,15 0
C9,45 0
C10,11 0
C10,16 0
C10,46 0
C11,12 0
C11,17 0
C11,47 0
C12,18 0
C12,48 0
C13,14 0
C13,19 0
C13,49 0
C14,15 0
C14,20 0
C14,50 0
C15,16 0
C15,21 0
C15,51 0
C16,17 0
C16,22 0
C16,52 0
C17,18 0
C17,23 0
C17,53 0
C18,24 0
C18,54 0
C19,20 0
C19,25 0
C19,55 0
C20,21 0
C20,26 0
C20,56 0
C21,22 0
C21,27 0
C21,57 0
C22,23 0
C22,28 0
C22,58 0
C23,24 0
C23,29 0
C23,59 0
C24,30 0
C24,60 0
C25,26 0
C25,31 0
C25,61 0
C26,27 0
C26,32 0
C26,62 0
C27,28 0
C27,33 0
C27,63 0
C28,29 0
C28,34 0
C28,64 0
C29,30 0
C29,35 0
C29,65 0
C30,36 0
C30,66 0
C31,32 0
C31,67 0
C32,33 0
C32,68 0
C33,34 0
C33,69 0
C34,35 0
C34,70 0
C35,36 0
C35,71 0
C36,72 0
C37,38 0
C37,43 0
C37,73 0
C38,39 0
C38,44 0
C38,74 0
C39,40 0
C39,45 0
C39,75 0
C40,41 0
C40,46 0
C40,76 0
C41,42 0
C41,47 0
C41,77 0
C42,48 0
C42,78 0
C43,44 0
C43,49 0
C43,79 0
C44,45 0
C44,50 0
C44,80 0
C45,46 0
C45,51 0
C45,81 0
C46,47 0
C46,52 0
C46,82 0
C47,48 0
C47,53 0
C47,83 0
C48,54 0
C48,84 0
C49,50 0
C49,55 0
C49,85 0
C50,51 0
C50,56 0
C50,86 0
C51,52 0
C51,57 0
C51,87 0
C52,53 0
C52,58 0
C52,88 0
C53,54 0
C53,59 0
C53,89 0
C54,60 0
C54,90 0
C55,56 0
C55,61 0
C55,91 0
C56,57 0
C56,62 0
C56,92 0
C57,58 0
C57,63 0
C57,93 0
C58,59 0
C58,64 0
C58,94 0
C59,60 0
C59,65 0
C59,95 0
C60,66 0
C60,96 0
C61,62 0
C61,67 0
C61,97 0
C62,63 0
C62,68 0
C62,98 0
C63,64 0
C63,69 0
C63,99 0
C64,65 0
C64,70 0
C64,100 0
C65,66 0
C65,71 0
C65,101 0
C66,72 0
C66,102 0
C67,68 0
C67,103 0
C68,69 0
C68,104 0
C69,70 0
C69,105 0
C70,71 0
C70,106 0
C71,72 0
C71,107 0
C72,108 0
C73,74 0
C73,79 0
C73,109 0
C74,75 0
C74,80 0
C74,110 0
C75,76 0
C75,81 0
C75,111 0
C76,77 0
C76,82 0
C76,112 0
C77,78 0
C77,83 0
C77,113 0
C78,84 0
C78,114 0
C79,80 0
C79,85 0
C79,115 0
C80,81 0
C80,86 0
C80,116 0
C81,82 0
C81,87 0
C81,117 0
C82,83 0
C82,88 0
C82,118 0
C83,84 0
C83,89 0
C83,119 0
C84,90 0
C84,120 0
C85,86 0
C85,91 0
C85,121 0
C86,87 0
C86,92 0
C86,122 0
C87,88 0
C87,93 0
C87,123 0
C88,89 0
C88,94 0
C88,124 0
C89,90 0
C89,95 0
C89,125 0
C90,96 0
C90,126 0
C91,92 0
C91,97 0
C91,127 0
C92,93 0
C92,98 0
C92,128 0
C93,94 0
C93,99 0
C93,129 0
C94,95 0
C94,100 0
C94,130 0
C95,96 0
C95,101 0
C95,131 0
C96,102 0
C96,132 0
C97,98 0
C97,103 0
C97,133 0
C98,99 0
C98,104 0
C98,134 0
C99,100 0
C99,105 0
C99,135 0
C100,101 0
C100,106 0
C100,136 0
C101,102 0
C101,107 0
C101,137 0
C102,108 0
C102,138 0
C103,104 0
C103,139 0
C104,105 0
C104,140 0
C105,106 0
C105,141 0
C106,107 0
C106,142 0
C107,108 0
C107,143 0
C108,144 0
C109,110 0
C109,115 0
C109,145 0
C110,111 0
C110,116 0
C110,146 0
C111,112 0
C111,117 0
C111,147 0
C112,113 0
C112,118 0
C112,148 0
C113,114 0
C113,119 0
C113,149 0
C114,120 0
C114,150 0
C115,116 0
C115,121 0
C115,151 0
C116,117 0
C116,122 0
C116,152 0
C117,118 0
C117,123 0
C117,153 0
C118,119 0
C118,124 0
C118,154 0
C119,120 0
C119,125 0
C119,155 0
C120,126 0
C120,156 0
C121,122 0
C121,127 0
C121,157 0
C122,123 1
C122,128 0
C122,158 1
C123,124 0
C123,129 0
C123,159 1
C124,125 0
C124,130 0
C124,160 0
C125,126 0
C125,131 0
C125,161 0
C126,132 0
C126,162 0
C127,128 0
C127,133 0
C127,163 0
C128,129 0
C128,134 0
C128,164 0
C129,130 0
C129,135 0
C129,165 0
C130,131 0
C130,136 0
C130,166 0
C131,132 0
C131,137 0
C131,167 0
C132,138 0
C132,168 0
C133,134 0
C133,139 0
C133,169 0
C134,135 0
C134,140 0
C134,170 0
C135,136 0
C135,141 0
C135,171 0
C136,137 0
C136,142 0
C136,172 0
C137,138 0
C137,143 0
C137,173 0
C138,144 0
C138,174 0
C139,140 0
C139,175 0
C140,141 0
C140,176 0
C141,142 0
C141,177 0
C142,143 0
C142,178 0
C143,144 0
C143,179 0
C144,180 0
C145,146 0
C145,151 0
C145,181 0
C146,147 0
C146,152 0
C146,182 0
C147,148 0
C147,153 0
C147,183 0
C148,149 0
C148,154 0
C148,184 0
C149,150 0
C149,155 0
C149,185 0
C150,156 0
C150,186 0
C151,152 0
C151,157 0
C151,187 0
C152,153 0
C152,158 0
C152,188 0
C153,154 0
C153,159 0
C153,189 0
C154,155 0
C154,160 0
C154,190 0
C155,156 0
C155,161 0
C155,191 0
C156,162 0
C156,192 0
C157,158 0
C157,163 0
C157,193 0
C158,159 1
C158,164 1
C158,194 0
C159,160 0
C159,165 1
C159,195 0
C160,161 0
C160,166 0
C160,196 0
C161,162 0
C161,167 0
C161,197 0
C162,168 0
C162,198 0
C163,164 0
C163,169 0
C163,199 0
C164,165 1
C164,170 0
C164,200 0
C165,166 0
C165,171 0
C165,201 0
C166,167 0
C166,172 0
C166,202 0
C167,168 0
C167,173 0
C167,203 0
C168,174 0
C168,204 0
C169,170 0
C169,175 0
C169,205 0
C170,171 0
C170,176 0
C170,206 0
C171,172 0
C171,177 0
C171,207 0
C172,173 0
C172,178 0
C172,208 0
C173,174 0
C173,179 0
C173,209 0
C174,180 0
C174,210 0
C175,176 0
C175,211 0
C176,177 0
C176,212 0
C177,178 0
C177,213 0
C178,179 0
C178,214 0
C179,180 0
C179,215 0
C180,216 0
C181,182 0
C181,187 0
C182,183 0
C182,188 0
C183,184 0
C183,189 0
C184,185 0
C184,190 0
C185,186 0
C185,191 0
C186,192 0
C187,188 0
C187,193 0
C188,189 0
C188,194 0
C189,190 0
C189,195 0
C190,191 0
C190,196 0
C191,192 0
C191,197 0
C192,198 0
C193,194 0
C193,199 0
C194,195 0
C194,200 0
C195,196 0
C195,201 0
C196,197 0
C196,202 0
C197,198 0
C197,203 0
C198,204 0
C199,200 0
C199,205 0
C200,201 0
C200,206 0
C201,202 0
C201,207 0
C202,203 0
C202,208 0
C203,204 0
C203,209 0
C204,210 0
C205,206 0
C205,211 0
C206,207 0
C206,212 0
C207,208 0
C207,213 0
C208,209 0
C208,214 0
C209,210 0
C209,215 0
C210,216 0
C211,212 0
C212,213 0
C213,214 0
C214,215 0
C215,216 0
Offset 2
X1,1 0
X1,2 0
X1,3 0
X1,4 0
X1,5 0
X1,6 0
X1,7 0
X1,8 0
X1,9 0
X1,10 0
X1,11 0
X1,12 0
X1,13 0
X1,14 0
X1,15 0
X1,16 0
X1,17 0
X1,18 0
X1,19 0
X1,20 0
X1,21 0
X1,22 0
X1,23 0
X1,24 0
X1,25 0
X1,26 0
X1,27 0
X1,28 0
X1,29 0
X1,30 0
X1,31 0
X1,32 0
X1,33 0
X1,34 0
X1,35 0
X1,36 0
X1,37 0
X1,38 0
X1,39 0
X1,40 0
X1,41 0
X1,42 0
X1,43 0
X1,44 0
X1,45 0
X1,46 0
X1,47 0
X1,48 0
X1,49 0
X1,50 0
X1,51 0
X1,52 0
X1,53 0
X1,54 0
X1,55 0
X1,56 0
X1,57 0
X1,58 0
X1,59 0
X1,60 0
X1,61 0
X1,62 0
X1,63 0
X1,64 0
X1,65 0
X1,66 0
X1,67 0
X1,68 0
X1,69 0
X1,70 0
X1,71 0
X1,72 0
X1,73 0
X1,74 0
X1,75 0
X1,76 0
X1,77 0
X1,78 0
X1,79 0
X1,80 0
X1,81 0
X1,82 0
X1,83 0
X1,84 0
X1,85 0
X1,86 0
X1,87 0
X1,88 0
X1,89 0
X1,90 0
X1,91 0
X1,92 0
X1,93 0
X1,94 0
X1,95 0
X1,96 0
X1,97 0
X1,98 0
X1,99 0
X1,100 0
X1,101 0
X1,102 0
X1,103 0
X1,104 0
X1,105 0
X1,106 0
X1,107 0
X1,108 0
X1,109 0
X1,110 0
X1,111 0
X1,112 0
X1,113 0
X1,114 0
X1,115 0
X1,116 0
X1,117 0
X1,118 0
X1,119 0
X1,120 0
X1,121 0
X1,122 0
X1,123 0
X1,124 0
X1,125 0
X1,126 0
X1,127 0
X1,128 0
X1,129 0
X1,130 0
X1,131 0
X1,132 0
X1,133 0
X1,134 0
X1,135 0
X1,136 0
X1,137 0
X1,138 0
X1,139 0
X1,140 0
X1,141 0
X1,142 0
X1,143 0
X1,144 0
X1,145 0
X1,146 0
X1,147 0
X1,148 0
X1,149 0
X1,150 0
X1,151 0
X1,152 0
X1,153 0
X1,154 0
X1,155 0
X1,156 0
X1,157 0
X1,158 0
X1,159 0
X1,160 0
X1,161 0
X1,162 0
X1,163 0
X1,164 0
X1,165 0
X1,166 0
X1,167 0
X1,168 0
X1,169 0
X1,170 0
X1,171 0
X1,172 0
X1,173 0
X1,174 0
X1,175 0
X1,176 0
X1,177 0
X1,178 0
X1,179 0
X1,180 0
X1,181 0
X1,182 0
X1,183 0
X1,184 0
X1,185 0
X1,186 0
X1,187 0
X1,188 0
X1,189 0
X1,190 0
X1,191 0
X1,192 0
X1,193 1
X1,194 0
X1,195 0
X1,196 0
X1,197 0
X1,198 0
X1,199 0
X1,200 0
X1,201 0
X1,202 0
X1,203 0
X1,204 0
X1,205 0
X1,206 0
X1,207 0
X1,208 0
X1,209 0
X1,210 0
X1,211 0
X1,212 0
X1,213 0
X1,214 0
X1,215 0
X1,216 0
X2,1 0
X2,2 0
X2,3 0
X2,4 0
X2,5 0
X2,6 0
X2,7 0
X2,8 0
X2,9 0
X2,10 0
X2,11 0
X2,12 0
X2,13 0
X2,14 0
X2,15 0
X2,16 0
X2,17 0
X2,18 0
X2,19 0
X2,20 0
X2,21 0
X2,22 0
X2,23 0
X2,24 0
X2,25 0
X2,26 0
X2,27 0
X2,28 0
X2,29 0
X2,30 0
X2,31 0
X2,32 0
X2,33 0
X2,34 0
X2,35 0
X2,36 0
X2,37 0
X2,38 0
X2,39 0
X2,40 0
X2,41 0
X2,42 0
X2,43 0
X2,44 0
X2,45 0
X2,46 0
X2,47 0
X2,48 0
X2,49 0
X2,50 0
X2,51 0
X2,52 0
X2,53 0
X2,54 0
X2,55 0
X2,56 0
X2,57 0
X2,58 0
X2,59 0
X2,60 0
X2,61 0
X2,62 0
X2,63 0
X2,64 0
X2,65 0
X2,66 0
X2,67 0
X2,68 0
X2,69 0
X2,70 0
X2,71 0
X2,72 0
X2,73 0
X2,74 0
X2,75 0
X2,76 0
X2,77 0
X2,78 0
X2,79 0
X2,80 0
X2,81 0
X2,82 0
X2,83 0
X2,84 0
X2,85 0
X2,86 0
X2,87 0
X2,88 0
X2,89 0
X2,90 0
X2,91 0
X2,92 0
X2,93 0
X2,94 0
X2,95 0
X2,96 0
X2,97 0
X2,98 0
X2,99 0
X2,100 0
X2,101 0
X2,102 0
X2,103 0
X2,104 0
X2,105 0
X2,106 0
X2,107 0
X2,108 0
X2,109 0
X2,110 0
X2,111 0
X2,112 0
X2,113 0
X2,114 0
X2,115 0
X2,116 0
X2,117 0
X2,118 0
X2,119 0
X2,120 0
X2,121 0
X2,122 0
X2,123 0
X2,124 0
X2,125 0
X2,126 0
X2,127 0
X2,128 0
X2,129 0
X2,130 0
X2,131 0
X2,132 0
X2,133 0
X2,134 0
X2,135 0
X2,136 0
X2,137 0
X2,138 0
X2,139 0
X2,140 0
X2,141 0
X2,142 0
X2,143 0
X2,144 0
X2,145 0
X2,146 0
X2,147 0
X2,148 0
X2,149 0
X2,150 0
X2,151 0
X2,152 0
X2,153 0
X2,154 0
X2,155 0
X2,156 0
X2,157 0
X2,158 0
X2,159 0
X2,160 0
X2,161 0
X2,162 0
X2,163 0
X2,164 0
X2,165 0
X2,166 0
X2,167 0
X2,168 0
X2,169 0
X2,170 0
X2,171 0
X2,172 0
X2,173 0
X2,174 0
X2,175 0
X2,176 0
X2,177 0
X2,178 0
X2,179 0
X2,180 0
X2,181 0
X2,182 0
X2,183 0
X2,184 0
X2,185 0
X2,186 0
X2,187 0
X2,188 0
X2,189 0
X2,190 0
X2,191 0
X2,192 0
X2,193 0
X2,194 1
X2,195 0
X2,196 0
X2,197 0
X2,198 0
X2,199 0
X2,200 0
X2,201 0
X2,202 0
X2,203 0
X2,204 0
X2,205 0
X2,206 0
X2,207 0
X2,208 0
X2,209 0
X2,210 0
X2,211 0
X2,212 0
X2,213 0
X2,214 0
X2,215 0
X2,216 0
X3,1 0
X3,2 0
X3,3 0
X3,4 0
X3,5 0
X3,6 0
X3,7 0
X3,8 0
X3,9 0
X3,10 0
X3,11 0
X3,12 0
X3,13 0
X3,14 0
X3,15 0
X3,16 0
X3,17 0
X3,18 0
X3,19 0
X3,20 0
X3,21 0
X3,22 0
X3,23 0
X3,24 0
X3,25 0
X3,26 0
X3,27 0
X3,28 0
X3,29 0
X3,30 0
X3,31 0
X3,32 0
X3,33 0
X3,34 0
X3,35 0
X3,36 0
X3,37 0
X3,38 0
X3,39 0
X3,40 0
X3,41 0
X3,42 0
X3,43 0
X3,44 0
X3,45 0
X3,46 0
X3,47 0
X3,48 0
X3,49 0
X3,50 0
X3,51 0
X3,52 0
X3,53 0
X3,54 0
X3,55 0
X3,56 0
X3,57 0
X3,58 0
X3,59 0
X3,60 0
X3,61 0
X3,62 0
X3,63 0
X3,64 0
X3,65 0
X3,66 0
X3,67 0
X3,68 0
X3,69 0
X3,70 0
X3,71 0
X3,72 0
X3,73 0
X3,74 0
X3,75 0
X3,76 0
X3,77 0
X3,78 0
X3,79 0
X3,80 0
X3,81 0
X3,82 0
X3,83 0
X3,84 0
X3,85 0
X3,86 0
X3,87 0
X3,88 0
X3,89 0
X3,90 0
X3,91 0
X3,92 0
X3,93 0
X3,94 0
X3,95 0
X3,96 0
X3,97 0
X3,98 0
X3,99 0
X3,100 0
X3,101 0
X3,102 0
X3,103 0
X3,104 0
X3,105 0
X3,106 0
X3,107 0
X3,108 0
X3,109 0
X3,110 0
X3,111 0
X3,112 0
X3,113 0
X3,114 0
X3,115 0
X3,116 0
X3,117 0
X3,118 0
X3,119 0
X3,120 0
X3,121 0
X3,122 0
X3,123 0
X3,124 0
X3,125 0
X3,126 0
X3,127 0
X3,128 0
X3,129 0
X3,130 0
X3,131 0
X3,132 0
X3,133 0
X3,134 0
X3,135 0
X3,136 0
X3,137 0
X3,138 0
X3,139 0
X3,140 0
X3,141 0
X3,142 0
X3,143 0
X3,144 0
X3,145 0
X3,146 0
X3,147 0
X3,148 0
X3,149 0
X3,150 0
X3,151 0
X3,152 0
X3,153 0
X3,154 0
X3,155 0
X3,156 0
X3,157 0
X3,158 1
X3,159 0
X3,160 0
X3,161 0
X3,162 0
X3,163 0
X3,164 0
X3,165 0
X3,166 0
X3,167 0
X3,168 0
X3,169 0
X3,170 0
X3,171 0
X3,172 0
X3,173 0
X3,174 0
X3,175 0
X3,176 0
X3,177 0
X3,178 0
X3,179 0
X3,180 0
X3,181 0
X3,182 0
X3,183 0
X3,184 0
X3,185 0
X3,186 0
X3,187 0
X3,188 0
X3,189 0
X3,190 0
X3,191 0
X3,192 0
X3,193 0
X3,194 0
X3,195 0
X3,196 0
X3,197 0
X3,198 0
X3,199 0
X3,200 0
X3,201 0
X3,202 0
X3,203 0
X3,204 0
X3,205 0
X3,206 0
X3,207 0
X3,208 0
X3,209 0
X3,210 0
X3,211 0
X3,212 0
X3,213 0
X3,214 0
X3,215 0
X3,216 0
X4,1 0
X4,2 0
X4,3 0
X4,4 0
X4,5 0
X4,6 0
X4,7 0
X4,8 0
X4,9 0
X4,10 0
X4,11 0
X4,12 0
X4,13 0
X4,14 0
X4,15 0
X4,16 0
X4,17 0
X4,18 0
X4,19 0
X4,20 0
X4,21 0
X4,22 0
X4,23 0
X4,24 0
X4,25 0
X4,26 0
X4,27 0
X4,28 0
X4,29 0
X4,30 0
X4,31 0
X4,32 0
X4,33 0
X4,34 0
X4,35 0
X4,36 0
X4,37 0
X4,38 0
X4,39 0
X4,40 0
X4,41 0
X4,42 0
X4,43 0
X4,44 0
X4,45 0
X4,46 0
X4,47 0
X4,48 0
X4,49 0
X4,50 0
X4,51 0
X4,52 0
X4,53 0
X4,54 0
X4,55 0
X4,56 0
X4,57 0
X4,58 0
X4,59 0
X4,60 0
X4,61 0
X4,62 0
X4,63 0
X4,64 0
X4,65 0
X4,66 0
X4,67 0
X4,68 0
X4,69 0
X4,70 0
X4,71 0
X4,72 0
X4,73 0
X4,74 0
X4,75 0
X4,76 0
X4,77 0
X4,78 0
X4,79 0
X4,80 0
X4,81 0
X4,82 0
X4,83 0
X4,84 0
X4,85 0
X4,86 0
X4,87 0
X4,88 0
X4,89 0
X4,90 0
X4,91 0
X4,92 0
X4,93 0
X4,94 0
X4,95 0
X4,96 0
X4,97 0
X4,98 0
X4,99 0
X4,100 0
X4,101 0
X4,102 0
X4,103 0
X4,104 0
X4,105 0
X4,106 0
X4,107 0
X4,108 0
X4,109 0
X4,110 0
X4,111 0
X4,112 0
X4,113 0
X4,114 0
X4,115 0
X4,116 0
X4,117 0
X4,118 0
X4,119 0
X4,120 0
X4,121 0
X4,122 1
X4,123 0
X4,124 0
X4,125 0
X4,126 0
X4,127 0
X4,128 0
X4,129 0
X4,130 0
X4,131 0
X4,132 0
X4,133 0
X4,134 0
X4,135 0
X4,136 0
X4,137 0
X4,138 0
X4,139 0
X4,140 0
X4,141 0
X4,142 0
X4,143 0
X4,144 0
X4,145 0
X4,146 0
X4,147 0
X4,148 0
X4,149 0
X4,150 0
X4,151 0
X4,152 0
X4,153 0
X4,154 0
X4,155 0
X4,156 0
X4,157 0
X4,158 0
X4,159 0
X4,160 0
X4,161 0
X4,162 0
X4,163 0
X4,164 0
X4,165 0
X4,166 0
X4,167 0
X4,168 0
X4,169 0
X4,170 0
X4,171 0
X4,172 0
X4,173 0
X4,174 0
X4,175 0
X4,176 0
X4,177 0
X4,178 0
X4,179 0
X4,180 0
X4,181 0
X4,182 0
X4,183 0
X4,184 0
X4,185 0
X4,186 0
X4,187 0
X4,188 0
X4,189 0
X4,190 0
X4,191 0
X4,192 0
X4,193 0
X4,194 0
X4,195 0
X4,196 0
X4,197 0
X4,198 0
X4,199 0
X4,200 0
X4,201 0
X4,202 0
X4,203 0
X4,204 0
X4,205 0
X4,206 0
X4,207 0
X4,208 0
X4,209 0
X4,210 0
X4,211 0
X4,212 0
X4,213 0
X4,214 0
X4,215 0
X4,216 0
X5,1 0
X5,2 0
X5,3 0
X5,4 0
X5,5 0
X5,6 0
X5,7 0
X5,8 0
X5,9 0
X5,10 0
X5,11 0
X5,12 0
X5,13 0
X5,14 0
X5,15 0
X5,16 0
X5,17 0
X5,18 0
X5,19 0
X5,20 0
X5,21 0
X5,22 0
X5,23 0
X5,24 0
X5,25 0
X5,26 0
X5,27 0
X5,28 0
X5,29 0
X5,30 0
X5,31 0
X5,32 0
X5,33 0
X5,34 0
X5,35 0
X5,36 0
X5,37 0
X5,38 0
X5,39 0
X5,40 0
X5,41 0
X5,42 0
X5,43 0
X5,44 0
X5,45 0
X5,46 0
X5,47 0
X5,48 0
X5,49 0
X5,50 0
X5,51 0
X5,52 0
X5,53 0
X5,54 0
X5,55 0
X5,56 0
X5,57 0
X5,58 0
X5,59 0
X5,60 0
X5,61 0
X5,62 0
X5,63 0
X5,64 0
X5,65 0
X5,66 0
X5,67 0
X5,68 0
X5,69 0
X5,70 0
X5,71 0
X5,72 0
X5,73 0
X5,74 0
X5,75 0
X5,76 0
X5,77 0
X5,78 0
X5,79 0
X5,80 0
X5,81 0
X5,82 0
X5,83 0
X5,84 0
X5,85 0
X5,86 0
X5,87 0
X5,88 0
X5,89 0
X5,90 0
X5,91 0
X5,92 0
X5,93 0
X5,94 0
X5,95 0
X5,96 0
X5,97 0
X5,98 0
X5,99 0
X5,100 0
X5,101 0
X5,102 0
X5,103 0
X5,104 0
X5,105 0
X5,106 0
X5,107 0
X5,108 0
X5,109 0
X5,110 0
X5,111 0
X5,112 0
X5,113 0
X5,114 0
X5,115 0
X5,116 0
X5,117 0
X5,118 0
X5,119 0
X5,120 0
X5,121 0
X5,122 0
X5,123 0
X5,124 0
X5,125 0
X5,126 0
X5,127 0
X5,128 1
X5,129 0
X5,130 0
X5,131 0
X5,132 0
X5,133 0
X5,134 0
X5,135 0
X5,136 0
X5,137 0
X5,138 0
X5,139 0
X5,140 0
X5,141 0
X5,142 0
X5,143 0
X5,144 0
X5,145 0
X5,146 0
X5,147 0
X5,148 0
X5,149 0
X5,150 0
X5,151 0
X5,152 0
X5,153 0
X5,154 0
X5,155 0
X5,156 0
X5,157 0
X5,158 0
X5,159 0
X5,160 0
X5,161 0
X5,162 0
X5,163 0
X5,164 0
X5,165 0
X5,166 0
X5,167 0
X5,168 0
X5,169 0
X5,170 0
X5,171 0
X5,172 0
X5,173 0
X5,174 0
X5,175 0
X5,176 0
X5,177 0
X5,178 0
X5,179 0
X5,180 0
X5,181 0
X5,182 0
X5,183 0
X5,184 0
X5,185 0
X5,186 0
X5,187 0
X5,188 0
X5,189 0
X5,190 0
X5,191 0
X5,192 0
X5,193 0
X5,194 0
X5,195 0
X5,196 0
X5,197 0
X5,198 0
X5,199 0
X5,200 0
X5,201 0
X5,202 0
X5,203 0
X5,204 0
X5,205 0
X5,206 0
X5,207 0
X5,208 0
X5,209 0
X5,210 0
X5,211 0
X5,212 0
X5,213 0
X5,214 0
X5,215 0
X5,216 0
X6,1 0
X6,2 0
X6,3 0
X6,4 0
X6,5 0
X6,6 0
X6,7 0
X6,8 0
X6,9 0
X6,10 0
X6,11 0
X6,12 0
X6,13 0
X6,14 0
X6,15 0
X6,16 0
X6,17 0
X6,18 0
X6,19 0
X6,20 0
X6,21 0
X6,22 0
X6,23 0
X6,24 0
X6,25 0
X6,26 0
X6,27 0
X6,28 0
X6,29 0
X6,30 0
X6,31 0
X6,32 0
X6,33 0
X6,34 0
X6,35 0
X6,36 0
X6,37 0
X6,38 0
X6,39 0
X6,40 0
X6,41 0
X6,42 0
X6,43 0
X6,44 0
X6,45 0
X6,46 0
X6,47 0
X6,48 0
X6,49 0
X6,50 0
X6,51 0
X6,52 0
X6,53 0
X6,54 0
X6,55 0
X6,56 0
X6,57 0
X6,58 0
X6,59 0
X6,60 0
X6,61 0
X6,62 0
X6,63 0
X6,64 0
X6,65 0
X6,66 0
X6,67 0
X6,68 0
X6,69 0
X6,70 0
X6,71 0
X6,72 0
X6,73 0
X6,74 0
X6,75 0
X6,76 0
X6,77 0
X6,78 0
X6,79 0
X6,80 0
X6,81 0
X6,82 0
X6,83 0
X6,84 0
X6,85 0
X6,86 0
X6,87 0
X6,88 0
X6,89 0
X6,90 0
X6,91 0
X6,92 0
X6,93 0
X6,94 0
X6,95 0
X6,96 0
X6,97 0
X6,98 0
X6,99 0
X6,100 0
X6,101 0
X6,102 0
X6,103 0
X6,104 0
X6,105 0
X6,106 0
X6,107 0
X6,108 0
X6,109 0
X6,110 0
X6,111 0
X6,112 0
X6,113 0
X6,114 0
X6,115 0
X6,116 0
X6,117 0
X6,118 0
X6,119 0
X6,120 0
X6,121 0
X6,122 0
X6,123 0
X6,124 0
X6,125 0
X6,126 0
X6,127 0
X6,128 0
X6,129 0
X6,130 0
X6,131 0
X6,132 0
X6,133 0
X6,134 0
X6,135 0
X6,136 0
X6,137 0
X6,138 0
X6,139 0
X6,140 0
X6,141 0
X6,142 0
X6,143 0
X6,144 0
X6,145 0
X6,146 0
X6,147 0
X6,148 0
X6,149 0
X6,150 0
X6,151 0
X6,152 0
X6,153 0
X6,154 0
X6,155 0
X6,156 0
X6,157 0
X6,158 0
X6,159 0
X6,160 0
X6,161 0
X6,162 0
X6,163 0
X6,164 1
X6,165 0
X6,166 0
X6,167 0
X6,168 0
X6,169 0
X6,170 0
X6,171 0
X6,172 0
X6,173 0
X6,174 0
X6,175 0
X6,176 0
X6,177 0
X6,178 0
X6,179 0
X6,180 0
X6,181 0
X6,182 0
X6,183 0
X6,184 0
X6,185 0
X6,186 0
X6,187 0
X6,188 0
X6,189 0
X6,190 0
X6,191 0
X6,192 0
X6,193 0
X6,194 0
X6,195 0
X6,196 0
X6,197 0
X6,198 0
X6,199 0
X6,200 0
X6,201 0
X6,202 0
X6,203 0
X6,204 0
X6,205 0
X6,206 0
X6,207 0
X6,208 0
X6,209 0
X6,210 0
X6,211 0
X6,212 0
X6,213 0
X6,214 0
X6,215 0
X6,216 0
X7,1 0
X7,2 0
X7,3 0
X7,4 0
X7,5 0
X7,6 0
X7,7 0
X7,8 0
X7,9 0
X7,10 0
X7,11 0
X7,12 0
X7,13 0
X7,14 0
X7,15 0
X7,16 0
X7,17 0
X7,18 0
X7,19 0
X7,20 0
X7,21 0
X7,22 0
X7,23 0
X7,24 0
X7,25 0
X7,26 0
X7,27 0
X7,28 0
X7,29 0
X7,30 0
X7,31 0
X7,32 0
X7,33 0
X7,34 0
X7,35 0
X7,36 0
X7,37 0
X7,38 0
X7,39 0
X7,40 0
X7,41 0
X7,42 0
X7,43 0
X7,44 0
X7,45 0
X7,46 0
X7,47 0
X7,48 0
X7,49 0
X7,50 0
X7,51 0
X7,52 0
X7,53 0
X7,54 0
X7,55 0
X7,56 0
X7,57 0
X7,58 0
X7,59 0
X7,60 0
X7,61 0
X7,62 0
X7,63 0
X7,64 0
X7,65 0
X7,66 0
X7,67 0
X7,68 0
X7,69 0
X7,70 0
X7,71 0
X7,72 0
X7,73 0
X7,74 0
X7,75 0
X7,76 0
X7,77 0
X7,78 0
X7,79 0
X7,80 0
X7,81 0
X7,82 0
X7,83 0
X7,84 0
X7,85 0
X7,86 0
X7,87 0
X7,88 0
X7,89 0
X7,90 0
X7,91 0
X7,92 0
X7,93 0
X7,94 0
X7,95 0
X7,96 0
X7,97 0
X7,98 0
X7,99 0
X7,100 0
X7,101 0
X7,102 0
X7,103 0
X7,104 0
X7,105 0
X7,106 0
X7,107 0
X7,108 0
X7,109 0
X7,110 0
X7,111 0
X7,112 0
X7,113 0
X7,114 0
X7,115 0
X7,116 0
X7,117 0
X7,118 0
X7,119 0
X7,120 0
X7,121 0
X7,122 0
X7,123 0
X7,124 0
X7,125 0
X7,126 0
X7,127 0
X7,128 0
X7,129 0
X7,130 0
X7,131 0
X7,132 0
X7,133 0
X7,134 0
X7,135 0
X7,136 0
X7,137 0
X7,138 0
X7,139 0
X7,140 0
X7,141 0
X7,142 0
X7,143 0
X7,144 0
X7,145 0
X7,146 0
X7,147 0
X7,148 0
X7,149 0
X7,150 0
X7,151 0
X7,152 0
X7,153 0
X7,154 0
X7,155 0
X7,156 0
X7,157 0
X7,158 0
X7,159 0
X7,160 0
X7,161 0
X7,162 0
X7,163 0
X7,164 0
X7,165 0
X7,166 0
X7,167 0
X7,168 0
X7,169 0
X7,170 1
X7,171 0
X7,172 0
X7,173 0
X7,174 0
X7,175 0
X7,176 0
X7,177 0
X7,178 0
X7,179 0
X7,180 0
X7,181 0
X7,182 0
X7,183 0
X7,184 0
X7,185 0
X7,186 0
X7,187 0
X7,188 0
X7,189 0
X7,190 0
X7,191 0
X7,192 0
X7,193 0
X7,194 0
X7,195 0
X7,196 0
X7,197 0
X7,198 0
X7,199 0
X7,200 0
X7,201 0
X7,202 0
X7,203 0
X7,204 0
X7,205 0
X7,206 0
X7,207 0
X7,208 0
X7,209 0
X7,210 0
X7,211 0
X7,212 0
X7,213 0
X7,214 0
X7,215 0
X7,216 0
X8,1 0
X8,2 0
X8,3 0
X8,4 0
X8,5 0
X8,6 0
X8,7 0
X8,8 0
X8,9 0
X8,10 0
X8,11 0
X8,12 0
X8,13 0
X8,14 0
X8,15 0
X8,16 0
X8,17 0
X8,18 0
X8,19 0
X8,20 0
X8,21 0
X8,22 0
X8,23 0
X8,24 0
X8,25 0
X8,26 0
X8,27 0
X8,28 0
X8,29 0
X8,30 0
X8,31 0
X8,32 0
X8,33 0
X8,34 0
X8,35 0
X8,36 0
X8,37 0
X8,38 0
X8,39 0
X8,40 0
X8,41 0
X8,42 0
X8,43 0
X8,44 0
X8,45 0
X8,46 0
X8,47 0
X8,48 0
X8,49 0
X8,50 0
X8,51 0
X8,52 0
X8,53 0
X8,54 0
X8,55 0
X8,56 0
X8,57 0
X8,58 0
X8,59 0
X8,60 0
X8,61 0
X8,62 0
X8,63 0
X8,64 0
X8,65 0
X8,66 0
X8,67 0
X8,68 0
X8,69 0
X8,70 0
X8,71 0
X8,72 0
X8,73 0
X8,74 0
X8,75 0
X8,76 0
X8,77 0
X8,78 0
X8,79 0
X8,80 0
X8,81 0
X8,82 0
X8,83 0
X8,84 0
X8,85 0
X8,86 0
X8,87 0
X8,88 0
X8,89 0
X8,90 0
X8,91 0
X8,92 0
X8,93 0
X8,94 0
X8,95 0
X8,96 0
X8,97 0
X8,98 0
X8,99 0
X8,100 0
X8,101 0
X8,102 0
X8,103 0
X8,104 0
X8,105 0
X8,106 0
X8,107 0
X8,108 0
X8,109 0
X8,110 0
X8,111 0
X8,112 0
X8,113 0
X8,114 0
X8,115 0
X8,116 0
X8,117 0
X8,118 0
X8,119 0
X8,120 0
X8,121 0
X8,122 0
X8,123 0
X8,124 0
X8,125 0
X8,126 0
X8,127 0
X8,128 0
X8,129 0
X8,130 0
X8,131 0
X8,132 0
X8,133 0
X8,134 0
X8,135 0
X8,136 0
X8,137 0
X8,138 0
X8,139 0
X8,140 0
X8,141 0
X8,142 0
X8,143 0
X8,144 0
X8,145 0
X8,146 0
X8,147 0
X8,148 0
X8,149 0
X8,150 0
X8,151 0
X8,152 0
X8,153 0
X8,154 0
X8,155 0
X8,156 0
X8,157 0
X8,158 0
X8,159 0
X8,160 0
X8,161 0
X8,162 0
X8,163 0
X8,164 0
X8,165 0
X8,166 0
X8,167 0
X8,168 0
X8,169 0
X8,170 0
X8,171 1
X8,172 0
X8,173 0
X8,174 0
X8,175 0
X8,176 0
X8,177 0
X8,178 0
X8,179 0
X8,180 0
X8,181 0
X8,182 0
X8,183 0
X8,184 0
X8,185 0
X8,186 0
X8,187 0
X8,188 0
X8,189 0
X8,190 0
X8,191 0
X8,192 0
X8,193 0
X8,194 0
X8,195 0
X8,196 0
X8,197 0
X8,198 0
X8,199 0
X8,200 0
X8,201 0
X8,202 0
X8,203 0
X8,204 0
X8,205 0
X8,206 0
X8,207 0
X8,208 0
X8,209 0
X8,210 0
X8,211 0
X8,212 0
X8,213 0
X8,214 0
X8,215 0
X8,216 0
X9,1 0
X9,2 0
X9,3 0
X9,4 0
X9,5 0
X9,6 0
X9,7 0
X9,8 0
X9,9 0
X9,10 0
X9,11 0
X9,12 0
X9,13 0
X9,14 0
X9,15 0
X9,16 0
X9,17 0
X9,18 0
X9,19 0
X9,20 0
X9,21 0
X9,22 0
X9,23 0
X9,24 0
X9,25 0
X9,26 0
X9,27 0
X9,28 0
X9,29 0
X9,30 0
X9,31 0
X9,32 0
X9,33 0
X9,34 0
X9,35 0
X9,36 0
X9,37 0
X9,38 0
X9,39 0
X9,40 0
X9,41 0
X9,42 0
X9,43 0
X9,44 0
X9,45 0
X9,46 0
X9,47 0
X9,48 0
X9,49 0
X9,50 0
X9,51 0
X9,52 0
X9,53 0
X9,54 0
X9,55 0
X9,56 0
X9,57 0
X9,58 0
X9,59 0
X9,60 0
X9,61 0
X9,62 0
X9,63 0
X9,64 0
X9,65 0
X9,66 0
X9,67 0
X9,68 0
X9,69 0
X9,70 0
X9,71 0
X9,72 0
X9,73 0
X9,74 0
X9,75 0
X9,76 0
X9,77 0
X9,78 0
X9,79 0
X9,80 0
X9,81 0
X9,82 0
X9,83 0
X9,84 0
X9,85 0
X9,86 0
X9,87 0
X9,88 0
X9,89 0
X9,90 0
X9,91 0
X9,92 0
X9,93 0
X9,94 0
X9,95 0
X9,96 0
X9,97 0
X9,98 0
X9,99 0
X9,100 0
X9,101 0
X9,102 0
X9,103 0
X9,104 0
X9,105 0
X9,106 0
X9,107 0
X9,108 0
X9,109 0
X9,110 0
X9,111 0
X9,112 0
X9,113 0
X9,114 0
X9,115 0
X9,116 0
X9,117 0
X9,118 0
X9,119 0
X9,120 0
X9,121 0
X9,122 0
X9,123 0
X9,124 0
X9,125 0
X9,126 0
X9,127 0
X9,128 0
X9,129 0
X9,130 0
X9,131 0
X9,132 0
X9,133 0
X9,134 0
X9,135 0
X9,136 0
X9,137 0
X9,138 0
X9,139 0
X9,140 0
X9,141 0
X9,142 0
X9,143 0
X9,144 0
X9,145 0
X9,146 0
X9,147 0
X9,148 0
X9,149 0
X9,150 0
X9,151 0
X9,152 0
X9,153 0
X9,154 0
X9,155 0
X9,156 0
X9,157 0
X9,158 0
X9,159 0
X9,160 0
X9,161 0
X9,162 0
X9,163 0
X9,164 0
X9,165 1
X9,166 0
X9,167 0
X9,168 0
X9,169 0
X9,170 0
X9,171 0
X9,172 0
X9,173 0
X9,174 0
X9,175 0
X9,176 0
X9,177 0
X9,178 0
X9,179 0
X9,180 0
X9,181 0
X9,182 0
X9,183 0
X9,184 0
X9,185 0
X9,186 0
X9,187 0
X9,188 0
X9,189 0
X9,190 0
X9,191 0
X9,192 0
X9,193 0
X9,194 0
X9,195 0
X9,196 0
X9,197 0
X9,198 0
X9,199 0
X9,200 0
X9,201 0
X9,202 0
X9,203 0
X9,204 0
X9,205 0
X9,206 0
X9,207 0
X9,208 0
X9,209 0
X9,210 0
X9,211 0
X9,212 0
X9,213 0
X9,214 0
X9,215 0
X9,216 0
X10,1 0
X10,2 0
X10,3 0
X10,4 0
X10,5 0
X10,6 0
X10,7 0
X10,8 0
X10,9 0
X10,10 0
X10,11 0
X10,12 0
X10,13 0
X10,14 0
X10,15 0
X10,16 0
X10,17 0
X10,18 0
X10,19 0
X10,20 0
X10,21 0
X10,22 0
X10,23 0
X10,24 0
X10,25 0
X10,26 0
X10,27 0
X10,28 0
X10,29 0
X10,30 0
X10,31 0
X10,32 0
X10,33 0
X10,34 0
X10,35 0
X10,36 0
X10,37 0
X10,38 0
X10,39 0
X10,40 0
X10,41 0
X10,42 0
X10,43 0
X10,44 0
X10,45 0
X10,46 0
X10,47 0
X10,48 0
X10,49 0
X10,50 0
X10,51 0
X10,52 0
X10,53 0
X10,54 0
X10,55 0
X10,56 0
X10,57 0
X10,58 0
X10,59 0
X10,60 0
X10,61 0
X10,62 0
X10,63 0
X10,64 0
X10,65 0
X10,66 0
X10,67 0
X10,68 0
X10,69 0
X10,70 0
X10,71 0
X10,72 0
X10,73 0
X10,74 0
X10,75 0
X10,76 0
X10,77 0
X10,78 0
X10,79 0
X10,80 0
X10,81 0
X10,82 0
X10,83 0
X10,84 0
X10,85 0
X10,86 0
X10,87 0
X10,88 0
X10,89 0
X10,90 0
X10,91 0
X10,92 0
X10,93 0
X10,94 0
X10,95 0
X10,96 0
X10,97 0
X10,98 0
X10,99 0
X10,100 0
X10,101 0
X10,102 0
X10,103 0
X10,104 0
X10,105 0
X10,106 0
X10,107 0
X10,108 0
X10,109 0
X10,110 0
X10,111 0
X10,112 0
X10,113 0
X10,114 0
X10,115 0
X10,116 0
X10,117 0
X10,118 0
X10,119 0
X10,120 0
X10,121 0
X10,122 0
X10,123 0
X10,124 0
X10,125 0
X10,126 0
X10,127 0
X10,128 0
X10,129 1
X10,130 0
X10,131 0
X10,132 0
X10,133 0
X10,134 0
X10,135 0
X10,136 0
X10,137 0
X10,138 0
X10,139 0
X10,140 0
X10,141 0
X10,142 0
X10,143 0
X10,144 0
X10,145 0
X10,146 0
X10,147 0
X10,148 0
X10,149 0
X10,150 0
X10,151 0
X10,152 0
X10,153 0
X10,154 0
X10,155 0
X10,156 0
X10,157 0
X10,158 0
X10,159 0
X10,160 0
X10,161 0
X10,162 0
X10,163 0
X10,164 0
X10,165 0
X10,166 0
X10,167 0
X10,168 0
X10,169 0
X10,170 0
X10,171 0
X10,172 0
X10,173 0
X10,174 0
X10,175 0
X10,176 0
X10,177 0
X10,178 0
X10,179 0
X10,180 0
X10,181 0
X10,182 0
X10,183 0
X10,184 0
X10,185 0
X10,186 0
X10,187 0
X10,188 0
X10,189 0
X10,190 0
X10,191 0
X10,192 0
X10,193 0
X10,194 0
X10,195 0
X10,196 0
X10,197 0
X10,198 0
X10,199 0
X10,200 0
X10,201 0
X10,202 0
X10,203 0
X10,204 0
X10,205 0
X10,206 0
X10,207 0
X10,208 0
X10,209 0
X10,210 0
X10,211 0
X10,212 0
X10,213 0
X10,214 0
X10,215 0
X10,216 0
X11,1 0
X11,2 0
X11,3 0
X11,4 0
X11,5 0
X11,6 0
X11,7 0
X11,8 0
X11,9 0
X11,10 0
X11,11 0
X11,12 0
X11,13 0
X11,14 0
X11,15 0
X11,16 0
X11,17 0
X11,18 0
X11,19 0
X11,20 0
X11,21 0
X11,22 0
X11,23 0
X11,24 0
X11,25 0
X11,26 0
X11,27 0
X11,28 0
X11,29 0
X11,30 0
X11,31 0
X11,32 0
X11,33 0
X11,34 0
X11,35 0
X11,36 0
X11,37 0
X11,38 0
X11,39 0
X11,40 0
X11,41 0
X11,42 0
X11,43 0
X11,44 0
X11,45 0
X11,46 0
X11,47 0
X11,48 0
X11,49 0
X11,50 0
X11,51 0
X11,52 0
X11,53 0
X11,54 0
X11,55 0
X11,56 0
X11,57 0
X11,58 0
X11,59 0
X11,60 0
X11,61 0
X11,62 0
X11,63 0
X11,64 0
X11,65 0
X11,66 0
X11,67 0
X11,68 0
X11,69 0
X11,70 0
X11,71 0
X11,72 0
X11,73 0
X11,74 0
X11,75 0
X11,76 0
X11,77 0
X11,78 0
X11,79 0
X11,80 0
X11,81 0
X11,82 0
X11,83 0
X11,84 0
X11,85 0
X11,86 0
X11,87 0
X11,88 0
X11,89 0
X11,90 0
X11,91 0
X11,92 0
X11,93 0
X11,94 0
X11,95 0
X11,96 0
X11,97 0
X11,98 0
X11,99 0
X11,100 0
X11,101 0
X11,102 0
X11,103 0
X11,104 0
X11,105 0
X11,106 0
X11,107 0
X11,108 0
X11,109 0
X11,110 0
X11,111 0
X11,112 0
X11,113 0
X11,114 0
X11,115 0
X11,116 0
X11,117 0
X11,118 0
X11,119 0
X11,120 0
X11,121 0
X11,122 0
X11,123 1
X11,124 0
X11,125 0
X11,126 0
X11,127 0
X11,128 0
X11,129 0
X11,130 0
X11,131 0
X11,132 0
X11,133 0
X11,134 0
X11,135 0
X11,136 0
X11,137 0
X11,138 0
X11,139 0
X11,140 0
X11,141 0
X11,142 0
X11,143 0
X11,144 0
X11,145 0
X11,146 0
X11,147 0
X11,148 0
X11,149 0
X11,150 0
X11,151 0
X11,152 0
X11,153 0
X11,154 0
X11,155 0
X11,156 0
X11,157 0
X11,158 0
X11,159 0
X11,160 0
X11,161 0
X11,162 0
X11,163 0
X11,164 0
X11,165 0
X11,166 0
X11,167 0
X11,168 0
X11,169 0
X11,170 0
X11,171 0
X11,172 0
X11,173 0
X11,174 0
X11,175 0
X11,176 0
X11,177 0
X11,178 0
X11,179 0
X11,180 0
X11,181 0
X11,182 0
X11,183 0
X11,184 0
X11,185 0
X11,186 0
X11,187 0
X11,188 0
X11,189 0
X11,190 0
X11,191 0
X11,192 0
X11,193 0
X11,194 0
X11,195 0
X11,196 0
X11,197 0
X11,198 0
X11,199 0
X11,200 0
X11,201 0
X11,202 0
X11,203 0
X11,204 0
X11,205 0
X11,206 0
X11,207 0
X11,208 0
X11,209 0
X11,210 0
X11,211 0
X11,212 0
X11,213 0
X11,214 0
X11,215 0
X11,216 0
X12,1 0
X12,2 0
X12,3 0
X12,4 0
X12,5 0
X12,6 0
X12,7 0
X12,8 0
X12,9 0
X12,10 0
X12,11 0
X12,12 0
X12,13 0
X12,14 0
X12,15 0
X12,16 0
X12,17 0
X12,18 0
X12,19 0
X12,20 0
X12,21 0
X12,22 0
X12,23 0
X12,24 0
X12,25 0
X12,26 0
X12,27 0
X12,28 0
X12,29 0
X12,30 0
X12,31 0
X12,32 0
X12,33 0
X12,34 0
X12,35 0
X12,36 0
X12,37 0
X12,38 0
X12,39 0
X12,40 0
X12,41 0
X12,42 0
X12,43 0
X12,44 0
X12,45 0
X12,46 0
X12,47 0
X12,48 0
X12,49 0
X12,50 0
X12,51 0
X12,52 0
X12,53 0
X12,54 0
X12,55 0
X12,56 0
X12,57 0
X12,58 0
X12,59 0
X12,60 0
X12,61 0
X12,62 0
X12,63 0
X12,64 0
X12,65 0
X12,66 0
X12,67 0
X12,68 0
X12,69 0
X12,70 0
X12,71 0
X12,72 0
X12,73 0
X12,74 0
X12,75 0
X12,76 0
X12,77 0
X12,78 0
X12,79 0
X12,80 0
X12,81 0
X12,82 0
X12,83 0
X12,84 0
X12,85 0
X12,86 0
X12,87 0
X12,88 0
X12,89 0
X12,90 0
X12,91 0
X12,92 0
X12,93 0
X12,94 0
X12,95 0
X12,96 0
X12,97 0
X12,98 0
X12,99 0
X12,100 0
X12,101 0
X12,102 0
X12,103 0
X12,104 0
X12,105 0
X12,106 0
X12,107 0
X12,108 0
X12,109 0
X12,110 0
X12,111 0
X12,112 0
X12,113 0
X12,114 0
X12,115 0
X12,116 0
X12,117 0
X12,118 0
X12,119 0
X12,120 0
X12,121 0
X12,122 0
X12,123 0
X12,124 0
X12,125 0
X12,126 0
X12,127 0
X12,128 0
X12,129 0
X12,130 0
X12,131 0
X12,132 0
X12,133 0
X12,134 0
X12,135 0
X12,136 0
X12,137 0
X12,138 0
X12,139 0
X12,140 0
X12,141 0
X12,142 0
X12,143 0
X12,144 0
X12,145 0
X12,146 0
X12,147 0
X12,148 0
X12,149 0
X12,150 0
X12,151 0
X12,152 0
X12,153 0
X12,154 0
X12,155 0
X12,156 0
X12,157 0
X12,158 0
X12,159 1
X12,160 0
X12,161 0
X12,162 0
X12,163 0
X12,164 0
X12,165 0
X12,166 0
X12,167 0
X12,168 0
X12,169 0
X12,170 0
X12,171 0
X12,172 0
X12,173 0
X12,174 0
X12,175 0
X12,176 0
X12,177 0
X12,178 0
X12,179 0
X12,180 0
X12,181 0
X12,182 0
X12,183 0
X12,184 0
X12,185 0
X12,186 0
X12,187 0
X12,188 0
X12,189 0
X12,190 0
X12,191 0
X12,192 0
X12,193 0
X12,194 0
X12,195 0
X12,196 0
X12,197 0
X12,198 0
X12,199 0
X12,200 0
X12,201 0
X12,202 0
X12,203 0
X12,204 0
X12,205 0
X12,206 0
X12,207 0
X12,208 0
X12,209 0
X12,210 0
X12,211 0
X12,212 0
X12,213 0
X12,214 0
X12,215 0
X12,216 0
X13,1 0
X13,2 0
X13,3 0
X13,4 0
X13,5 0
X13,6 0
X13,7 0
X13,8 0
X13,9 0
X13,10 0
X13,11 0
X13,12 0
X13,13 0
X13,14 0
X13,15 0
X13,16 0
X13,17 0
X13,18 0
X13,19 0
X13,20 0
X13,21 0
X13,22 0
X13,23 0
X13,24 0
X13,25 0
X13,26 0
X13,27 0
X13,28 0
X13,29 0
X13,30 0
X13,31 0
X13,32 0
X13,33 0
X13,34 0
X13,35 0
X13,36 0
X13,37 0
X13,38 0
X13,39 0
X13,40 0
X13,41 0
X13,42 0
X13,43 0
X13,44 0
X13,45 0
X13,46 0
X13,47 0
X13,48 0
X13,49 0
X13,50 0
X13,51 0
X13,52 0
X13,53 0
X13,54 0
X13,55 0
X13,56 0
X13,57 0
X13,58 0
X13,59 0
X13,60 0
X13,61 0
X13,62 0
X13,63 0
X13,64 0
X13,65 0
X13,66 0
X13,67 0
X13,68 0
X13,69 0
X13,70 0
X13,71 0
X13,72 0
X13,73 0
X13,74 0
X13,75 0
X13,76 0
X13,77 0
X13,78 0
X13,79 0
X13,80 0
X13,81 0
X13,82 0
X13,83 0
X13,84 0
X13,85 0
X13,86 0
X13,87 0
X13,88 0
X13,89 0
X13,90 0
X13,91 0
X13,92 0
X13,93 0
X13,94 0
X13,95 0
X13,96 0
X13,97 0
X13,98 0
X13,99 0
X13,100 0
X13,101 0
X13,102 0
X13,103 0
X13,104 0
X13,105 0
X13,106 0
X13,107 0
X13,108 0
X13,109 0
X13,110 0
X13,111 0
X13,112 0
X13,113 0
X13,114 0
X13,115 0
X13,116 0
X13,117 0
X13,118 0
X13,119 0
X13,120 0
X13,121 0
X13,122 0
X13,123 0
X13,124 0
X13,125 0
X13,126 0
X13,127 0
X13,128 0
X13,129 0
X13,130 0
X13,131 0
X13,132 0
X13,133 0
X13,134 0
X13,135 0
X13,136 0
X13,137 0
X13,138 0
X13,139 0
X13,140 0
X13,141 0
X13,142 0
X13,143 0
X13,144 0
X13,145 0
X13,146 0
X13,147 0
X13,148 0
X13,149 0
X13,150 0
X13,151 0
X13,152 0
X13,153 0
X13,154 0
X13,155 0
X13,156 0
X13,157 0
X13,158 0
X13,159 0
X13,160 0
X13,161 0
X13,162 0
X13,163 0
X13,164 0
X13,165 0
X13,166 0
X13,167 0
X13,168 0
X13,169 0
X13,170 0
X13,171 0
X13,172 0
X13,173 0
X13,174 0
X13,175 0
X13,176 0
X13,177 0
X13,178 0
X13,179 0
X13,180 0
X13,181 0
X13,182 0
X13,183 0
X13,184 0
X13,185 0
X13,186 0
X13,187 0
X13,188 0
X13,189 0
X13,190 0
X13,191 0
X13,192 0
X13,193 0
X13,194 0
X13,195 1
X13,196 0
X13,197 0
X13,198 0
X13,199 0
X13,200 0
X13,201 0
X13,202 0
X13,203 0
X13,204 0
X13,205 0
X13,206 0
X13,207 0
X13,208 0
X13,209 0
X13,210 0
X13,211 0
X13,212 0
X13,213 0
X13,214 0
X13,215 0
X13,216 0
X14,1 0
X14,2 0
X14,3 0
X14,4 0
X14,5 0
X14,6 0
X14,7 0
X14,8 0
X14,9 0
X14,10 0
X14,11 0
X14,12 0
X14,13 0
X14,14 0
X14,15 0
X14,16 0
X14,17 0
X14,18 0
X14,19 0
X14,20 0
X14,21 0
X14,22 0
X14,23 0
X14,24 0
X14,25 0
X14,26 0
X14,27 0
X14,28 0
X14,29 0
X14,30 0
X14,31 0
X14,32 0
X14,33 0
X14,34 0
X14,35 0
X14,36 0
X14,37 0
X14,38 0
X14,39 0
X14,40 0
X14,41 0
X14,42 0
X14,43 0
X14,44 0
X14,45 0
X14,46 0
X14,47 0
X14,48 0
X14,49 0
X14,50 0
X14,51 0
X14,52 0
X14,53 0
X14,54 0
X14,55 0
X14,56 0
X14,57 0
X14,58 0
X14,59 0
X14,60 0
X14,61 0
X14,62 0
X14,63 0
X14,64 0
X14,65 0
X14,66 0
X14,67 0
X14,68 0
X14,69 0
X14,70 0
X14,71 0
X14,72 0
X14,73 0
X14,74 0
X14,75 0
X14,76 0
X14,77 0
X14,78 0
X14,79 0
X14,80 0
X14,81 0
X14,82 0
X14,83 0
X14,84 0
X14,85 0
X14,86 0
X14,87 0
X14,88 0
X14,89 0
X14,90 0
X14,91 0
X14,92 0
X14,93 0
X14,94 0
X14,95 0
X14,96 0
X14,97 0
X14,98 0
X14,99 0
X14,100 0
X14,101 0
X14,102 0
X14,103 0
X14,104 0
X14,105 0
X14,106 0
X14,107 0
X14,108 0
X14,109 0
X14,110 0
X14,111 0
X14,112 0
X14,113 0
X14,114 0
X14,115 0
X14,116 0
X14,117 0
X14,118 0
X14,119 0
X14,120 0
X14,121 0
X14,122 0
X14,123 0
X14,124 0
X14,125 0
X14,126 0
X14,127 0
X14,128 0
X14,129 0
X14,130 0
X14,131 0
X14,132 0
X14,133 0
X14,134 0
X14,135 0
X14,136 0
X14,137 0
X14,138 0
X14,139 0
X14,140 0
X14,141 0
X14,142 0
X14,143 0
X14,144 0
X14,145 0
X14,146 0
X14,147 0
X14,148 0
X14,149 0
X14,150 0
X14,151 0
X14,152 0
X14,153 0
X14,154 0
X14,155 0
X14,156 0
X14,157 0
X14,158 0
X14,159 0
X14,160 0
X14,161 0
X14,162 0
X14,163 0
X14,164 0
X14,165 0
X14,166 0
X14,167 0
X14,168 0
X14,169 0
X14,170 0
X14,171 0
X14,172 0
X14,173 0
X14,174 0
X14,175 0
X14,176 0
X14,177 0
X14,178 0
X14,179 0
X14,180 0
X14,181 0
X14,182 0
X14,183 0
X14,184 0
X14,185 0
X14,186 0
X14,187 0
X14,188 0
X14,189 0
X14,190 0
X14,191 0
X14,192 0
X14,193 0
X14,194 0
X14,195 0
X14,196 0
X14,197 0
X14,198 0
X14,199 0
X14,200 0
X14,201 1
X14,202 0
X14,203 0
X14,204 0
X14,205 0
X14,206 0
X14,207 0
X14,208 0
X14,209 0
X14,210 0
X14,211 0
X14,212 0
X14,213 0
X14,214 0
X14,215 0
X14,216 0
X15,1 0
X15,2 0
X15,3 0
X15,4 0
X15,5 0
X15,6 0
X15,7 0
X15,8 0
X15,9 0
X15,10 0
X15,11 0
X15,12 0
X15,13 0
X15,14 0
X15,15 0
X15,16 0
X15,17 0
X15,18 0
X15,19 0
X15,20 0
X15,21 0
X15,22 0
X15,23 0
X15,24 0
X15,25 0
X15,26 0
X15,27 0
X15,28 0
X15,29 0
X15,30 0
X15,31 0
X15,32 0
X15,33 0
X15,34 0
X15,35 0
X15,36 0
X15,37 0
X15,38 0
X15,39 0
X15,40 0
X15,41 0
X15,42 0
X15,43 0
X15,44 0
X15,45 0
X15,46 0
X15,47 0
X15,48 0
X15,49 0
X15,50 0
X15,51 0
X15,52 0
X15,53 0
X15,54 0
X15,55 0
X15,56 0
X15,57 0
X15,58 0
X15,59 0
X15,60 0
X15,61 0
X15,62 0
X15,63 0
X15,64 0
X15,65 0
X15,66 0
X15,67 0
X15,68 0
X15,69 0
X15,70 0
X15,71 0
X15,72 0
X15,73 0
X15,74 0
X15,75 0
X15,76 0
X15,77 0
X15,78 0
X15,79 0
X15,80 0
X15,81 0
X15,82 0
X15,83 0
X15,84 0
X15,85 0
X15,86 0
X15,87 0
X15,88 0
X15,89 0
X15,90 0
X15,91 0
X15,92 0
X15,93 0
X15,94 0
X15,95 0
X15,96 0
X15,97 0
X15,98 0
X15,99 0
X15,100 0
X15,101 0
X15,102 0
X15,103 0
X15,104 0
X15,105 0
X15,106 0
X15,107 0
X15,108 0
X15,109 0
X15,110 0
X15,111 0
X15,112 0
X15,113 0
X15,114 0
X15,115 0
X15,116 0
X15,117 0
X15,118 0
X15,119 0
X15,120 0
X15,121 0
X15,122 0
X15,123 0
X15,124 0
X15,125 0
X15,126 0
X15,127 0
X15,128 0
X15,129 0
X15,130 0
X15,131 0
X15,132 0
X15,133 0
X15,134 0
X15,135 0
X15,136 0
X15,137 0
X15,138 0
X15,139 0
X15,140 0
X15,141 0
X15,142 0
X15,143 0
X15,144 0
X15,145 0
X15,146 0
X15,147 0
X15,148 0
X15,149 0
X15,150 0
X15,151 0
X15,152 0
X15,153 0
X15,154 0
X15,155 0
X15,156 0
X15,157 0
X15,158 0
X15,159 0
X15,160 0
X15,161 0
X15,162 0
X15,163 0
X15,164 0
X15,165 0
X15,166 0
X15,167 0
X15,168 0
X15,169 0
X15,170 0
X15,171 0
X15,172 0
X15,173 0
X15,174 0
X15,175 0
X15,176 0
X15,177 0
X15,178 0
X15,179 0
X15,180 0
X15,181 0
X15,182 0
X15,183 0
X15,184 0
X15,185 0
X15,186 0
X15,187 0
X15,188 0
X15,189 0
X15,190 0
X15,191 0
X15,192 0
X15,193 0
X15,194 0
X15,195 0
X15,196 0
X15,197 0
X15,198 0
X15,199 0
X15,200 0
X15,201 0
X15,202 1
X15,203 0
X15,204 0
X15,205 0
X15,206 0
X15,207 0
X15,208 0
X15,209 0
X15,210 0
X15,211 0
X15,212 0
X15,213 0
X15,214 0
X15,215 0
X15,216 0
X16,1 0
X16,2 0
X16,3 0
X16,4 0
X16,5 0
X16,6 0
X16,7 0
X16,8 0
X16,9 0
X16,10 0
X16,11 0
X16,12 0
X16,13 0
X16,14 0
X16,15 0
X16,16 0
X16,17 0
X16,18 0
X16,19 0
X16,20 0
X16,21 0
X16,22 0
X16,23 0
X16,24 0
X16,25 0
X16,26 0
X16,27 0
X16,28 0
X16,29 0
X16,30 0
X16,31 0
X16,32 0
X16,33 0
X16,34 0
X16,35 0
X16,36 0
X16,37 0
X16,38 0
X16,39 0
X16,40 0
X16,41 0
X16,42 0
X16,43 0
X16,44 0
X16,45 0
X16,46 0
X16,47 0
X16,48 0
X16,49 0
X16,50 0
X16,51 0
X16,52 0
X16,53 0
X16,54 0
X16,55 0
X16,56 0
X16,57 0
X16,58 0
X16,59 0
X16,60 0
X16,61 0
X16,62 0
X16,63 0
X16,64 0
X16,65 0
X16,66 0
X16,67 0
X16,68 0
X16,69 0
X16,70 0
X16,71 0
X16,72 0
X16,73 0
X16,74 0
X16,75 0
X16,76 0
X16,77 0
X16,78 0
X16,79 0
X16,80 0
X16,81 0
X16,82 0
X16,83 0
X16,84 0
X16,85 0
X16,86 0
X16,87 0
X16,88 0
X16,89 0
X16,90 0
X16,91 0
X16,92 0
X16,93 0
X16,94 0
X16,95 0
X16,96 0
X16,97 0
X16,98 0
X16,99 0
X16,100 0
X16,101 0
X16,102 0
X16,103 0
X16,104 0
X16,105 0
X16,106 0
X16,107 0
X16,108 0
X16,109 0
X16,110 0
X16,111 0
X16,112 0
X16,113 0
X16,114 0
X16,115 0
X16,116 0
X16,117 0
X16,118 0
X16,119 0
X16,120 0
X16,121 0
X16,122 0
X16,123 0
X16,124 0
X16,125 0
X16,126 0
X16,127 0
X16,128 0
X16,129 0
X16,130 0
X16,131 0
X16,132 0
X16,133 0
X16,134 0
X16,135 0
X16,136 0
X16,137 0
X16,138 0
X16,139 0
X16,140 0
X16,141 0
X16,142 0
X16,143 0
X16,144 0
X16,145 0
X16,146 0
X16,147 0
X16,148 0
X16,149 0
X16,150 0
X16,151 0
X16,152 0
X16,153 0
X16,154 0
X16,155 0
X16,156 0
X16,157 0
X16,158 0
X16,159 0
X16,160 0
X16,161 0
X16,162 0
X16,163 0
X16,164 0
X16,165 0
X16,166 0
X16,167 0
X16,168 0
X16,169 0
X16,170 0
X16,171 0
X16,172 0
X16,173 0
X16,174 0
X16,175 0
X16,176 0
X16,177 0
X16,178 0
X16,179 0
X16,180 0
X16,181 0
X16,182 0
X16,183 0
X16,184 0
X16,185 0
X16,186 0
X16,187 0
X16,188 0
X16,189 0
X16,190 0
X16,191 0
X16,192 0
X16,193 0
X16,194 0
X16,195 0
X16,196 1
X16,197 0
X16,198 0
X16,199 0
X16,200 0
X16,201 0
X16,202 0
X16,203 0
X16,204 0
X16,205 0
X16,206 0
X16,207 0
X16,208 0
X16,209 0
X16,210 0
X16,211 0
X16,212 0
X16,213 0
X16,214 0
X16,215 0
X16,216 0
I1 0
I2 0
I3 0
I4 0
I5 0
I6 0
I7 0
I8 0
I9 0
I10 0
I11 0
I12 0
I13 0
I14 0
I15 0
I16 0
I17 0
I18 0
I19 0
I20 0
I21 0
I22 0
I23 0
I24 0
I25 0
I26 0
I27 0
I28 0
I29 0
I30 0
I31 0
I32 0
I33 0
I34 0
I35 0
I36 0
I37 0
I38 0
I39 0
I40 0
I41 0
I42 0
I43 0
I44 0
I45 0
I46 0
I47 0
I48 0
I49 0
I50 0
I51 0
I52 0
I53 0
I54 0
I55 0
I56 0
I57 0
I58 0
I59 0
I60 0
I61 0
I62 0
I63 0
I64 0
I65 0
I66 0
I67 0
I68 0
I69 0
I70 0
I71 0
I72 0
I73 0
I74 0
I75 0
I76 0
I77 0
I78 0
I79 0
I80 0
I81 0
I82 0
I83 0
I84 0
I85 0
I86 0
I87 0
I88 0
I89 0
I90 0
I91 0
I92 0
I93 0
I94 0
I95 0
I96 0
I97 0
I98 0
I99 0
I100 0
I101 0
I102 0
I103 0
I104 0
I105 0
I106 0
I107 0
I108 0
I109 0
I110 0
I111 0
I112 0
I113 0
I114 0
I115 0
I116 0
I117 0
I118 0
I119 0
I120 0
I121 0
I122 1
I123 1
I124 0
I125 0
I126 0
I127 0
I128 0
I129 0
I130 0
I131 0
I132 0
I133 0
I134 0
I135 0
I136 0
I137 0
I138 0
I139 0
I140 0
I141 0
I142 0
I143 0
I144 0
I145 0
I146 0
I147 0
I148 0
I149 0
I150 0
I151 0
I152 0
I153 0
I154 0
I155 0
I156 0
I157 0
I158 1
I159 1
I160 0
I161 0
I162 0
I163 0
I164 1
I165 1
I166 0
I167 0
I168 0
I169 0
I170 0
I171 0
I172 0
I173 0
I174 0
I175 0
I176 0
I177 0
I178 0
I179 0
I180 0
I181 0
I182 0
I183 0
I184 0
I185 0
I186 0
I187 0
I188 0
I189 0
I190 0
I191 0
I192 0
I193 0
I194 0
I195 0
I196 0
I197 0
I198 0
I199 0
I200 0
I201 0
I202 0
I203 0
I204 0
I205 0
I206 0
I207 0
I208 0
I209 0
I210 0
I211 0
I212 0
I213 0
I214 0
I215 0
I216 0
